1386.85
0 71 70 20 54 19 57 45 48 2 51 39 0
0 10 11 46 8 67 33 0
0 38 31 24 69 60 37 5 27 34 0
0 65 66 35 28 21 47 29 30 0
0 73 64 43 41 56 3 40 68 52 0
0 1 42 23 63 16 44 32 9 72 58 12 0
0 25 55 14 59 13 15 36 61 74 62 26 0
0 7 53 50 18 49 22 4 75 6 17 0
